ObjectiveValue = 4245.975252694;
flow=[(5,0,1)(5,1,2)(5,2,1)(5,4,1)(5,6,21)(5,7,0)(5,8,0)(5,9,0)(5,10,10)(5,11,1)(5,12,13)(6,1,2)(6,4,1)(6,9,1)(6,10,6)(6,11,13)(8,11,3)(10,11,2)(10,12,1)(11,6,38)(11,9,2)(11,10,2)(11,12,5)(12,5,8)(12,6,15)(12,10,2)(12,11,5)];
